30	3
7	7	9	
0	0	0	0	29	2	3	4	5	6	7	8	9	10	11	12	13	14	15	16	17	18	19	20	21	22	23	24	25	26	27	28	29	30	
104	2	1	3	1	10	
173	2	2	1	1	30	
153	1	2	2	1	27	
2	1	2	2	1	9	
2	2	1	2	2	19	27	
3	2	1	3	1	30	
166	2	2	2	1	30	
2	2	2	2	1	30	
153	2	1	2	1	30	
4	3	2	2	1	30	
235	4	2	2	1	17	
117	2	2	3	1	30	
226	2	2	2	2	28	25	
3	2	1	2	1	30	
2	3	1	2	1	22	
104	3	2	3	1	30	
4	2	1	1	1	30	
3	3	1	3	1	24	
4	3	2	3	1	30	
119	1	1	3	1	30	
2	1	1	3	1	30	
169	3	1	1	1	30	
166	3	1	2	1	25	
2	3	1	1	1	30	
4	3	2	3	1	30	
2	3	2	3	1	30	
55	4	2	2	1	30	
2	5	2	2	1	30	
0	0	0	0	0	